 :256                                     
   1.00000000000000     
     7.5612179332289235    0.0000000000000000    0.0000000000000000
     0.0000000000000000   13.0290855373284717    0.0000000000000000
     0.0000000000000000    0.0000000000000000   22.1417007446000014
   Ni   Te
    16    32
Selective
Direct
  0.0000000000000000  0.0000287510297424  0.3791463244272362
  0.5000000000000000  0.0000287510297424  0.3791463244272362
  0.2500000000000000  0.2500287510297424  0.3791463244272362
  0.7500000000000000  0.2500287510297424  0.3791463244272362
  0.0000000000000000  0.5000287510297422  0.3791463244272362
  0.5000000000000000  0.5000287510297422  0.3791463244272362
  0.2500000000000000  0.7500287510297423  0.3791463244272362
  0.7500000000000000  0.7500287510297423  0.3791463244272362
 -0.0000000000000000 -0.0000287510297424  0.6208536755727639
  0.5000000000000000 -0.0000287510297424  0.6208536755727639
  0.2500000000000000  0.2499712489702577  0.6208536755727639
  0.7500000000000000  0.2499712489702577  0.6208536755727639
  0.0000000000000000  0.4999712489702575  0.6208536755727639
  0.5000000000000000  0.4999712489702575  0.6208536755727639
  0.2500000000000000  0.7499712489702577  0.6208536755727639
  0.7500000000000000  0.7499712489702577  0.6208536755727639
  0.2500000000000000  0.0825673624679101  0.4400160774385052
  0.2500000000000000  0.5825673624679102  0.4400160774385052
  0.7500000000000000  0.0825673624679101  0.4400160774385052
  0.7500000000000000  0.5825673624679102  0.4400160774385052
 -0.0000000000000000  0.1674326375320899  0.5599839225614950
  0.0000000000000000  0.6674326375320898  0.5599839225614950
  0.5000000000000000  0.1674326375320899  0.5599839225614950
  0.5000000000000000  0.6674326375320898  0.5599839225614950
  0.0000000000000000  0.1673269327074524  0.3168899352485747
 -0.0000000000000000  0.6673269327074526  0.3168899352485747
  0.5000000000000000  0.1673269327074524  0.3168899352485747
  0.5000000000000000  0.6673269327074526  0.3168899352485747
  0.2500000000000000  0.0826730672925476  0.6831100647514251
  0.2500000000000000  0.5826730672925474  0.6831100647514251
  0.7500000000000000  0.0826730672925476  0.6831100647514251
  0.7500000000000000  0.5826730672925474  0.6831100647514251
  0.0000000000000000  0.3325673624679100  0.4400160774385052
  0.0000000000000000  0.8325673624679102  0.4400160774385052
  0.5000000000000000  0.3325673624679100  0.4400160774385052
  0.5000000000000000  0.8325673624679102  0.4400160774385052
 -0.0000000000000000  0.3326730672925477  0.6831100647514251
  0.0000000000000000  0.8326730672925474  0.6831100647514251
  0.5000000000000000  0.3326730672925477  0.6831100647514251
  0.5000000000000000  0.8326730672925474  0.6831100647514251
  0.2500000000000000  0.4174326375320900  0.5599839225614950
  0.2500000000000000  0.9174326375320898  0.5599839225614950
  0.7500000000000000  0.4174326375320900  0.5599839225614950
  0.7500000000000000  0.9174326375320898  0.5599839225614950
  0.2500000000000000  0.4173269327074523  0.3168899352485747
  0.2500000000000000  0.9173269327074526  0.3168899352485747
  0.7500000000000000  0.4173269327074523  0.3168899352485747
  0.7500000000000000  0.9173269327074526  0.3168899352485747

